NAME : tsp_444_sol.txt
COMMENT : OR-Tools Guided Local Search
TYPE : TOUR
DIMENSION : 50
COST : 5704
STATUS : ROUTING_SUCCESS
GAP : 0.00% (Reference Solution)
TOUR_SECTION
1
30
5
21
43
34
49
20
48
15
44
4
41
32
24
31
6
38
8
36
10
45
25
13
14
11
39
9
40
17
18
27
50
46
42
35
2
19
28
37
3
22
29
33
23
7
47
26
16
12
-1
